FILENAME:   /home/mcs001/s132664/testsets/IP/miplib2017/chromaticindex32-8.mps.gz
SETTINGS:   settings_final_nosym_norestarts
TIMELIMIT:  7200
OUTPUTNAME: final_miplib_symretope_if_extended_generating_set_cpx_v802__settings_final_nosym_norestarts__3__
BINNAME:    bin/sbcs.linux.x86_64.gnu.opt.cpx
BASENAME:   chromaticindex32-8.mps.gz
SEED:       3
@01 /home/mcs001/s132664/testsets/IP/miplib2017/chromaticindex32-8.mps.gz ===========
@02 chromaticindex32-8.mps.gz
@03 1686659765
SCIP version 8.0.2 [precision: 8 byte] [memory: block] [mode: optimized] [LP solver: CPLEX 20.1.0.0] [GitHash: 5f0473c]
Copyright (C) 2002-2022 Konrad-Zuse-Zentrum fuer Informationstechnik Berlin (ZIB)

Symretope propagation methods - (c) Jasper van Doornmalen, Christopher Hojny.
[GitHash: 2fd0484]

reading parameter file <../settings/settings_final_nosym_norestarts.set> ...

Changed settings:
limits/time = 7200
limits/restarts = 0
misc/usesymmetry = 0
randomization/randomseedshift = 3
constraints/orbisack/sepafreq = -1
constraints/symresack/sepafreq = -1
propagating/symmetry/detectsubgroups = FALSE
propagating/symmetry/usesymretopes = FALSE
propagating/symmetry/relabelsymretopes = 0
propagating/symmetry/ofsymcomptiming = 0
constraints/symretope/sepafreq = -1
constraints/symretope/peek = FALSE


solving problem ...

original problem has 2304 variables (2304 bin, 0 int, 0 impl, 0 cont) and 2111 constraints
presolving:
(round 1, exhaustive) 0 del vars, 0 del conss, 0 add conss, 0 chg bounds, 0 chg sides, 0 chg coeffs, 2111 upgd conss, 0 impls, 2111 clqs
   (0.0s) probing: 51/2304 (2.2%) - 0 fixings, 0 aggregations, 0 implications, 0 bound changes
   (0.0s) probing aborted: 50/50 successive totally useless probings
presolving (2 rounds: 2 fast, 2 medium, 2 exhaustive):
 0 deleted vars, 0 deleted constraints, 0 added constraints, 0 tightened bounds, 0 added holes, 0 changed sides, 0 changed coefficients
 0 implications, 2111 cliques
presolved problem has 2304 variables (2304 bin, 0 int, 0 impl, 0 cont) and 2111 constraints
   2111 constraints of type <setppc>
transformed objective value is always integral (scale: 1)
Presolving Time: 0.05

 time | node  | left  |LP iter|LP it/n|mem/heur|mdpt |vars |cons |rows |cuts |sepa|confs|strbr|  dualbound   | primalbound  |  gap   | compl. 
p 0.1s|     1 |     0 |     0 |     - | vbounds|   0 |2304 |2125 |2111 |   0 |  0 |  13 |   0 | 0.000000e+00 | 4.000000e+00 |    Inf | unknown
  0.2s|     1 |     0 |     1 |     - |    19M |   0 |2304 |2125 |2111 |   0 |  0 |  13 |   0 | 3.000000e+00 | 4.000000e+00 |  33.33%| unknown
  0.3s|     1 |     0 |   249 |     - |    22M |   0 |2304 |2126 |2112 |   1 |  1 |  14 |   0 | 3.000000e+00 | 4.000000e+00 |  33.33%| unknown
  0.5s|     1 |     0 |   510 |     - |    26M |   0 |2304 |2127 |2113 |   2 |  2 |  15 |   0 | 3.000000e+00 | 4.000000e+00 |  33.33%| unknown
  0.6s|     1 |     0 |   788 |     - |    29M |   0 |2304 |2128 |2114 |   3 |  3 |  16 |   0 | 3.000000e+00 | 4.000000e+00 |  33.33%| unknown
  0.8s|     1 |     0 |  1040 |     - |    33M |   0 |2304 |2129 |2116 |   5 |  4 |  17 |   0 | 3.000000e+00 | 4.000000e+00 |  33.33%| unknown
  0.9s|     1 |     0 |  1407 |     - |    35M |   0 |2304 |2130 |2118 |   7 |  5 |  18 |   0 | 3.000000e+00 | 4.000000e+00 |  33.33%| unknown
  1.1s|     1 |     0 |  1782 |     - |    38M |   0 |2304 |2131 |2120 |   9 |  6 |  19 |   0 | 3.000000e+00 | 4.000000e+00 |  33.33%| unknown
  1.3s|     1 |     0 |  2130 |     - |    42M |   0 |2304 |2132 |2122 |  11 |  7 |  20 |   0 | 3.000000e+00 | 4.000000e+00 |  33.33%| unknown
  1.4s|     1 |     0 |  2431 |     - |    43M |   0 |2304 |2133 |2124 |  13 |  8 |  21 |   0 | 3.000000e+00 | 4.000000e+00 |  33.33%| unknown
  1.6s|     1 |     0 |  2720 |     - |    47M |   0 |2304 |2134 |2126 |  15 |  9 |  22 |   0 | 3.000000e+00 | 4.000000e+00 |  33.33%| unknown
  1.7s|     1 |     0 |  3206 |     - |    48M |   0 |2304 |2135 |2128 |  17 | 10 |  23 |   0 | 3.000000e+00 | 4.000000e+00 |  33.33%| unknown
  1.8s|     1 |     0 |  3472 |     - |    49M |   0 |2304 |2136 |2129 |  18 | 11 |  24 |   0 | 3.000000e+00 | 4.000000e+00 |  33.33%| unknown
  2.9s|     1 |     2 |  4778 |     - |    49M |   0 |2304 |2145 |2129 |  18 | 11 |  33 |  11 | 3.000000e+00 | 4.000000e+00 |  33.33%| unknown
  5.2s|   100 |     4 | 15036 | 116.8 |    52M |  18 |2304 |2286 |2118 |  68 |  1 | 174 |  11 | 3.000000e+00 | 4.000000e+00 |  33.33%|  14.90%

SCIP Status        : problem is solved [optimal solution found]
Solving Time (sec) : 7.51
Solving Nodes      : 192
Primal Bound       : +4.00000000000000e+00 (2 solutions)
Dual Bound         : +4.00000000000000e+00
Gap                : 0.00 %
SCIP Status        : problem is solved [optimal solution found]
Total Time         :       7.52
  solving          :       7.51
  presolving       :       0.05 (included in solving)
  reading          :       0.01
  copying          :       0.20 (22 #copies) (minimal 0.01, maximal 0.01, average 0.01)
Original Problem   :
  Problem name     : chromaticindex32-8
  Variables        : 2304 (2304 binary, 0 integer, 0 implicit integer, 0 continuous)
  Constraints      : 2111 initial, 2111 maximal
  Objective        : minimize, 4 non-zeros (abs.min = 1, abs.max = 1)
Presolved Problem  :
  Problem name     : t_chromaticindex32-8
  Variables        : 2304 (2304 binary, 0 integer, 0 implicit integer, 0 continuous)
  Constraints      : 2111 initial, 2368 maximal
  Objective        : minimize, 4 non-zeros (abs.min = 1, abs.max = 1)
  Nonzeros         : 8436 constraint, 8441 clique table
Presolvers         :   ExecTime  SetupTime  Calls  FixedVars   AggrVars   ChgTypes  ChgBounds   AddHoles    DelCons    AddCons   ChgSides   ChgCoefs
  boundshift       :       0.00       0.00      0          0          0          0          0          0          0          0          0          0
  convertinttobin  :       0.00       0.00      0          0          0          0          0          0          0          0          0          0
  domcol           :       0.00       0.00      1          0          0          0          0          0          0          0          0          0
  dualagg          :       0.00       0.00      0          0          0          0          0          0          0          0          0          0
  dualcomp         :       0.00       0.00      0          0          0          0          0          0          0          0          0          0
  dualinfer        :       0.00       0.00      0          0          0          0          0          0          0          0          0          0
  dualsparsify     :       0.00       0.00      1          0          0          0          0          0          0          0          0          0
  gateextraction   :       0.00       0.00      0          0          0          0          0          0          0          0          0          0
  implics          :       0.00       0.00      2          0          0          0          0          0          0          0          0          0
  inttobinary      :       0.00       0.00      0          0          0          0          0          0          0          0          0          0
  qpkktref         :       0.00       0.00      0          0          0          0          0          0          0          0          0          0
  redvub           :       0.00       0.00      0          0          0          0          0          0          0          0          0          0
  sparsify         :       0.00       0.00      1          0          0          0          0          0          0          0          0          0
  stuffing         :       0.00       0.00      0          0          0          0          0          0          0          0          0          0
  trivial          :       0.00       0.00      2          0          0          0          0          0          0          0          0          0
  tworowbnd        :       0.00       0.00      0          0          0          0          0          0          0          0          0          0
  dualfix          :       0.00       0.00      2          0          0          0          0          0          0          0          0          0
  genvbounds       :       0.00       0.00      0          0          0          0          0          0          0          0          0          0
  probing          :       0.01       0.00      1          0          0          0          0          0          0          0          0          0
  pseudoobj        :       0.00       0.00      0          0          0          0          0          0          0          0          0          0
  symmetry         :       0.00       0.00      0          0          0          0          0          0          0          0          0          0
  vbounds          :       0.00       0.00      1          0          0          0          0          0          0          0          0          0
  knapsack         :       0.00       0.00      0          0          0          0          0          0          0          0          0          0
  setppc           :       0.00       0.00      3          0          0          0          0          0          0          0          0          0
  linear           :       0.01       0.00      2          0          0          0          0          0          0          0          0          0
  logicor          :       0.00       0.00      0          0          0          0          0          0          0          0          0          0
  benders          :       0.00       0.00      0          0          0          0          0          0          0          0          0          0
  components       :       0.00       0.00      1          0          0          0          0          0          0          0          0          0
  root node        :          -          -      -          1          -          -          1          -          -          -          -          -
Constraints        :     Number  MaxNumber  #Separate #Propagate    #EnfoLP    #EnfoRelax  #EnfoPS    #Check   #ResProp    Cutoffs    DomReds       Cuts    Applied      Conss   Children
  benderslp        :          0          0          0          0        102          0          0         10          0          0          0          0          0          0          0
  integral         :          0          0          0          0        102          0          0         10          0          0          0          0          0          0        204
  knapsack         :          0+        14          0       2007          0          0          0          0         36          5         70          0          0          0          0
  setppc           :       2111+      2117         11       9596          0          0          0          5       1897         86      13584          0          0          0          0
  linear           :          0+        13          0       1761          0          0          0          0         11          3         22          0          0          0          0
  logicor          :          0+       232         11        640          0          0          0          0        123          2        141          0          0          0          0
  benders          :          0          0          0          0          0          0          0          3          0          0          0          0          0          0          0
  countsols        :          0          0          0          0          0          0          0          3          0          0          0          0          0          0          0
  components       :          0          0          0          0          0          0          0          0          0          0          0          0          0          0          0
Constraint Timings :  TotalTime  SetupTime   Separate  Propagate     EnfoLP     EnfoPS     EnfoRelax   Check    ResProp    SB-Prop
  benderslp        :       0.00       0.00       0.00       0.00       0.00       0.00       0.00       0.00       0.00       0.00
  integral         :       0.88       0.00       0.00       0.00       0.87       0.00       0.00       0.00       0.00       0.00
  knapsack         :       0.00       0.00       0.00       0.00       0.00       0.00       0.00       0.00       0.00       0.00
  setppc           :       0.07       0.00       0.00       0.07       0.00       0.00       0.00       0.00       0.00       0.00
  linear           :       0.00       0.00       0.00       0.00       0.00       0.00       0.00       0.00       0.00       0.00
  logicor          :       0.00       0.00       0.00       0.00       0.00       0.00       0.00       0.00       0.00       0.00
  benders          :       0.00       0.00       0.00       0.00       0.00       0.00       0.00       0.00       0.00       0.00
  countsols        :       0.00       0.00       0.00       0.00       0.00       0.00       0.00       0.00       0.00       0.00
  components       :       0.00       0.00       0.00       0.00       0.00       0.00       0.00       0.00       0.00       0.00
Propagators        : #Propagate   #ResProp    Cutoffs    DomReds
  dualfix          :          2          0          0          0
  genvbounds       :          0          0          0          0
  nlobbt           :          0          0          0          0
  obbt             :          0          0          0          0
  probing          :          0          0          0          0
  pseudoobj        :        903         54          0         13
  redcost          :         13          0          0          0
  rootredcost      :          0          0          0          0
  symmetry         :          0          0          0          0
  vbounds          :       4147          0          0          0
Propagator Timings :  TotalTime  SetupTime   Presolve  Propagate    ResProp    SB-Prop
  dualfix          :       0.00       0.00       0.00       0.00       0.00       0.00
  genvbounds       :       0.00       0.00       0.00       0.00       0.00       0.00
  nlobbt           :       0.00       0.00       0.00       0.00       0.00       0.00
  obbt             :       0.00       0.00       0.00       0.00       0.00       0.00
  probing          :       0.01       0.00       0.01       0.00       0.00       0.00
  pseudoobj        :       0.00       0.00       0.00       0.00       0.00       0.00
  redcost          :       0.00       0.00       0.00       0.00       0.00       0.00
  rootredcost      :       0.00       0.00       0.00       0.00       0.00       0.00
  symmetry         :       0.00       0.00       0.00       0.00       0.00       0.00
  vbounds          :       0.01       0.00       0.00       0.01       0.00       0.00
Conflict Analysis  :       Time      Calls    Success    DomReds  Conflicts   Literals    Reconvs ReconvLits   Dualrays   Nonzeros   LP Iters   (pool size: [10000,10000])
  propagation      :       0.00         91         91          -        228        8.9          5       13.8          -          -          -
  infeasible LP    :       0.00          9          9          -         16       11.1          0        0.0          9       10.4          0
  bound exceed. LP :       0.01         14         14          -         31       11.3          0        0.0         14       12.6         10
  strong branching :       0.00          0          0          -          0        0.0          0        0.0          -          -          0
  pseudo solution  :       0.00          0          0          -          0        0.0          0        0.0          -          -          -
  applied globally :       0.00          -          -          0        233        7.7          -          -         23          -          -
  applied locally  :          -          -          -          0          0        0.0          -          -          0          -          -
Separators         :   ExecTime  SetupTime      Calls  RootCalls    Cutoffs    DomReds  FoundCuts ViaPoolAdd  DirectAdd    Applied ViaPoolApp  DirectApp      Conss
  cut pool         :       0.10          -         67         21          -          -       3202       3056          -          -          -          -          -    (maximal pool size:       3202)
  aggregation      :       0.04       0.00         34         11          0          0          0          0          0          0          0          0          0
  > cmir           :          -          -          -          -          -          -          -          0          0          0          0          0          -
  > flowcover      :          -          -          -          -          -          -          -          0          0          0          0          0          -
  > knapsackcover  :          -          -          -          -          -          -          -          0          0          0          0          0          -
  cgmip            :       0.00       0.00          0          0          0          0          0          0          0          0          0          0          0
  clique           :       0.22       0.00         11         11          0          0          0          0          0          0          0          0          0
  closecuts        :       0.00       0.00          0          0          0          0          0          0          0          0          0          0          0
  convexproj       :       0.00       0.00          0          0          0          0          0          0          0          0          0          0          0
  disjunctive      :       0.00       0.00          0          0          0          0          0          0          0          0          0          0          0
  eccuts           :       0.00       0.00          0          0          0          0          0          0          0          0          0          0          0
  gauge            :       0.00       0.00          0          0          0          0          0          0          0          0          0          0          0
  gomory           :       0.69       0.00         33         10          0          0       3161       2871          8         46         45          1          0
  > gomorymi       :          -          -          -          -          -          -          -        830          4          5          4          1          -
  > strongcg       :          -          -          -          -          -          -          -       2041          4         41         41          0          -
  impliedbounds    :       0.00       0.00         34         11          0          0          0          0          0          0          0          0          0
  interminor       :       0.00       0.00          0          0          0          0          0          0          0          0          0          0          0
  intobj           :       0.00       0.00          0          0          0          0          0          0          0          0          0          0          0
  mcf              :       0.00       0.00          1          1          0          0          0          0          0          0          0          0          0
  minor            :       0.00       0.00          0          0          0          0          0          0          0          0          0          0          0
  mixing           :       0.00       0.00          0          0          0          0          0          0          0          0          0          0          0
  oddcycle         :       0.00       0.00          0          0          0          0          0          0          0          0          0          0          0
  rapidlearning    :       1.30       0.00         21          1          0       3429          0          0          0          0          0          0         39
  rlt              :       0.00       0.00         10         10          0          0          0          0          0          0          0          0          0
  zerohalf         :       0.45       0.00         34         11          0          0         81        185         32        109         99         10          0
Cutselectors       :   ExecTime  SetupTime      Calls  RootCalls   Selected     Forced   Filtered  RootSelec   RootForc   RootFilt 
  hybrid           :       0.01       0.00         34         11        155          0       2941         18          0       1407
Pricers            :   ExecTime  SetupTime      Calls       Vars
  problem variables:       0.00          -          0          0
Branching Rules    :   ExecTime  SetupTime   BranchLP  BranchExt   BranchPS    Cutoffs    DomReds       Cuts      Conss   Children
  allfullstrong    :       0.00       0.00          0          0          0          0          0          0          0          0
  cloud            :       0.00       0.00          0          0          0          0          0          0          0          0
  distribution     :       0.00       0.00          0          0          0          0          0          0          0          0
  fullstrong       :       0.00       0.00          0          0          0          0          0          0          0          0
  inference        :       0.00       0.00          0          0          0          0          0          0          0          0
  leastinf         :       0.00       0.00          0          0          0          0          0          0          0          0
  lookahead        :       0.00       0.00          0          0          0          0          0          0          0          0
  mostinf          :       0.00       0.00          0          0          0          0          0          0          0          0
  multaggr         :       0.00       0.00          0          0          0          0          0          0          0          0
  nodereopt        :       0.00       0.00          0          0          0          0          0          0          0          0
  pscost           :       0.00       0.00          0          0          0          0          0          0          0          0
  random           :       0.00       0.00          0          0          0          0          0          0          0          0
  relpscost        :       0.87       0.00        102          0          0          0          0          0          0        204
  vanillafullstrong:       0.00       0.00          0          0          0          0          0          0          0          0
Primal Heuristics  :   ExecTime  SetupTime      Calls      Found       Best
  LP solutions     :       0.00          -          -          0          0
  relax solutions  :       0.00          -          -          0          0
  pseudo solutions :       0.00          -          -          0          0
  strong branching :       0.00          -          -          0          0
  actconsdiving    :       0.00       0.00          0          0          0
  adaptivediving   :       0.01       0.00          2          0          0
  alns             :       0.02       0.00          1          0          0
  bound            :       0.00       0.00          0          0          0
  clique           :       0.01       0.00          1          0          0
  coefdiving       :       0.00       0.00          0          0          0
  completesol      :       0.00       0.00          0          0          0
  conflictdiving   :       0.07       0.00          2          0          0
  crossover        :       0.00       0.00          0          0          0
  dins             :       0.00       0.00          0          0          0
  distributiondivin:       0.04       0.00          1          0          0
  dps              :       0.00       0.00          0          0          0
  dualval          :       0.00       0.00          0          0          0
  farkasdiving     :       0.00       0.00          0          0          0
  feaspump         :       0.14       0.00          1          1          0
  fixandinfer      :       0.00       0.00          0          0          0
  fracdiving       :       0.01       0.00          1          0          0
  gins             :       0.00       0.00          0          0          0
  guideddiving     :       0.02       0.00          1          0          0
  indicator        :       0.00       0.00          0          0          0
  intdiving        :       0.00       0.00          0          0          0
  intshifting      :       0.00       0.00          0          0          0
  linesearchdiving :       0.03       0.00          1          0          0
  localbranching   :       0.00       0.00          0          0          0
  locks            :       0.01       0.00          1          0          0
  lpface           :       0.00       0.00          0          0          0
  mpec             :       0.00       0.00          0          0          0
  multistart       :       0.00       0.00          0          0          0
  mutation         :       0.00       0.00          0          0          0
  nlpdiving        :       0.00       0.00          0          0          0
  objpscostdiving  :       0.32       0.00          1          0          0
  octane           :       0.00       0.00          0          0          0
  ofins            :       0.00       0.00          0          0          0
  oneopt           :       0.00       0.00          1          0          0
  padm             :       0.00       0.00          0          0          0
  proximity        :       0.00       0.00          0          0          0
  pscostdiving     :       0.02       0.00          2          0          0
  randrounding     :       0.06       0.00         12          0          0
  rens             :       0.00       0.00          0          0          0
  reoptsols        :       0.00       0.00          0          0          0
  repair           :       0.00       0.00          0          0          0
  rins             :       0.00       0.00          0          0          0
  rootsoldiving    :       0.10       0.00          1          0          0
  rounding         :       0.03       0.00        130          0          0
  shiftandpropagate:       0.00       0.00          0          0          0
  shifting         :       0.02       0.00         45          0          0
  simplerounding   :       0.00       0.00        152          0          0
  subnlp           :       0.00       0.00          0          0          0
  trivial          :       0.00       0.00          2          0          0
  trivialnegation  :       0.00       0.00          0          0          0
  trustregion      :       0.00       0.00          0          0          0
  trysol           :       0.00       0.00          0          0          0
  twoopt           :       0.00       0.00          0          0          0
  undercover       :       0.00       0.00          0          0          0
  vbounds          :       0.03       0.00          1          1          1
  veclendiving     :       0.00       0.00          1          0          0
  zeroobj          :       0.00       0.00          0          0          0
  zirounding       :       0.01       0.00        102          0          0
  other solutions  :          -          -          -          0          -
LP                 :       Time      Calls Iterations  Iter/call   Iter/sec  Time-0-It Calls-0-It    ItLimit
  primal LP        :       0.16         13          0       0.00       0.00       0.16         13
  dual LP          :       2.39        204      21502     105.92    8990.63       0.00          1
  lex dual LP      :       0.00          0          0       0.00          -
  barrier LP       :       0.00          0          0       0.00          -       0.00          0
  resolve instable :       0.00          0          0       0.00          -
  diving/probing LP:       0.65         76       4487      59.04    6864.72
  strong branching :       0.82         11       7582     689.27    9198.77          -          -          3
    (at root node) :          -         11       7582     689.27          -
  conflict analysis:       0.00          1         10      10.00          -
B&B Tree           :
  number of runs   :          1
  nodes            :        192 (102 internal, 90 leaves)
  feasible leaves  :          0
  infeas. leaves   :         46
  objective leaves :         44
  nodes (total)    :        192 (102 internal, 90 leaves)
  nodes left       :          0
  max depth        :         18
  max depth (total):         18
  backtracks       :         71 (37.0%)
  early backtracks :          0 (0.0%)
  nodes exc. ref.  :          0 (0.0%)
  delayed cutoffs  :         13
  repropagations   :         80 (872 domain reductions, 12 cutoffs)
  avg switch length:       3.14
  switching time   :       0.19
Root Node          :
  First LP value   : +3.00000000000000e+00
  First LP Iters   :          1 (19.25 Iter/sec)
  First LP Time    :       0.05
  Final Dual Bound : +3.00000000000000e+00
  Final Root Iters :       3472
  Root LP Estimate : +3.04394842579227e+00
Solution           :
  Solutions found  :          2 (1 improvements)
  First Solution   : +4.00000000000000e+00   (in run 1, after 1 nodes, 0.10 seconds, depth 488, found by <vbounds>)
  Gap First Sol.   :   infinite
  Gap Last Sol.    :   infinite
  Primal Bound     : +4.00000000000000e+00   (in run 1, after 1 nodes, 0.10 seconds, depth 488, found by <vbounds>)
  Dual Bound       : +4.00000000000000e+00
  Gap              :       0.00 %
Integrals          :      Total       Avg%
  primal-dual      :     199.07      26.52
  primal-ref       :          -          - (not evaluated)
  dual-ref         :          -          - (not evaluated)
written solution information to file <results/final_miplib_symretope_if_extended_generating_set_cpx_v802__settings_final_nosym_norestarts__3__chromaticindex32-8.mps.gz.sol>
@04 1686659772
